# Solution for model BELL5
# Objective value = 8.9664064915199988e+06
c1 1
c2 1
c3 1
c4 1
c5 1
c6 0
c7 1
c8 0
c9 0
c10 0
c11 0
c12 0
c13 1
c14 1
c15 0
c16 1
d1 0
d2 0
d3 0
d4 0
d5 0
d6 0
d7 0
d9 0
d10 0
d11 0
d12 0
d13 0
d14 0
d16 0
h1 0
h2 0
h3 0
h4 1
h5 1
h6 0
h7 11
h9 0
h10 0
h11 0
h12 0
h13 0
h14 0
h16 0
g1 0
g2 0
g3 0
g4 2
g5 38
g6 2
g7 498
g9 125
g10 10
g11 17
g12 41
g13 0
g14 19
g16 0
a1 8318
a2 7494
a3 60
a4 10
a5 0
a6 0
a7 0
a8 4800
a9 0
a10 18
a11 8
a12 16
a13 4334
a14 334
a15 700
a16 24
b1 792
b2 792
b3 336
b4 336
b5 0
b6 40
b7 166
b8 3000
b9 3000
b10 1632
b11 1392
b12 984
b13 456
b14 456
b15 0
b16 0
f1 0
f2 0
f3 0
f4 48
f5 900
f6 40
f7 11950
f9 3000
f10 240
f11 408
f12 984
f13 0
f14 456
f16 0
